;; unsat

(declare-const x1 sl.list.loc)
(declare-const x2 sl.list.loc)
(declare-const x3 sl.list.loc)
(declare-const x4 sl.list.loc)
(declare-const x5 sl.list.loc)
(declare-const x6 sl.list.loc)
(declare-const x7 sl.list.loc)
(declare-const x8 sl.list.loc)
(declare-const x9 sl.list.loc)
(declare-const x10 sl.list.loc)
(declare-const x11 sl.list.loc)
(declare-const x12 sl.list.loc)
(declare-const x13 sl.list.loc)
(declare-const x14 sl.list.loc)
(declare-const x15 sl.list.loc)

(assert (sl.sepcon (sl.sepcon (sl.sepcon (sl.sepcon (sl.sepcon (sl.sepcon (sl.sepcon (sl.sepcon (sl.sepcon (sl.sepcon (sl.sepcon (sl.sepcon (sl.sepcon (sl.sepcon (sl.sepcon (sl.sepcon (sl.sepcon (sl.sepcon (sl.list.eq sl.list.null sl.list.null)
 (sl.list.neq x6 x15)
)
 (sl.list.neq x11 x13)
)
 (sl.list.neq x7 x8)
)
 (sl.list.neq x7 x13)
)
 (sl.list.neq x2 x5)
)
 (sl.list.neq x8 x11)
)
 (sl.list.neq x8 x12)
)
 (sl.list.neq x8 x15)
)
 (sl.list.neq x1 x6)
)
 (sl.list.neq x1 x13)
)
 (sl.list.neq x1 x9)
)
 (sl.list.neq x1 x2)
)
 (sl.list.neq x1 x5)
)
 (sl.list.neq x4 x6)
)
 (sl.list.neq x4 x9)
)
 (sl.list.neq x4 x13)
)
 (sl.list.neq x13 x14)
)
 (sl.sepcon (sl.sepcon (sl.sepcon (sl.sepcon (sl.sepcon (sl.sepcon (sl.sepcon (sl.sepcon (sl.sepcon (sl.sepcon (sl.sepcon (sl.list.seg x1 x11)
 (sl.list.seg x8 x2)
)
 (sl.list.seg x8 x10)
)
 (sl.list.seg x8 x11)
)
 (sl.list.seg x2 x13)
)
 (sl.list.seg x12 x10)
)
 (sl.list.seg x3 x9)
)
 (sl.list.seg x3 x10)
)
 (sl.list.seg x3 x1)
)
 (sl.list.seg x11 x2)
)
 (sl.list.seg x6 x15)
)
 (sl.list.seg x6 x13)
)
)
)

